ALGO=Fast
PREC=Normal
ENCUT=500
EDIFF=1E-5
EDIFFG=-0.05
ISMEAR=0
SIGMA=0.02
LREAL=Auto
NELM=100
# opt
IBRION=2
ISIF=3
NSW=600
# print
LORBIT=11
LWAVE=.FALSE.
LCHARGE=.FALSE.
# vdw
IVDW=11