Fe (HCP 001 surface)
1.0
4.0651232  -2.3470000   0.0000000        
0.0000000   4.6940000   0.0000000    
0.0000000   0.0000000  20.0000000
Fe
4
direct
0.333333   0.166667   0.000000
0.833333   0.166667   0.000000
0.333333   0.666667   0.000000
0.833333   0.666667   0.000000