%BLOCK LATTICE_CART
       4.917220560950915       0.000000000000000       0.000000000000000
       0.000000000000000       4.917220560950915       0.000000000000000
       0.000000000000000       0.000000000000000      20.000000018627038
%ENDBLOCK LATTICE_CART

%BLOCK POSITIONS_FRAC
 Fe   0.0000000000000000   0.0000000000000000   0.0000000000000000 SPIN=  4.0000000000
 Fe   0.4999999999999998   0.0000000000000000   0.0000000000000000 SPIN=  4.0000000000
 Fe   0.0000000000000000   0.4999999999999998   0.0000000000000000 SPIN=  4.0000000000
 Fe   0.4999999999999998   0.4999999999999998   0.0000000000000000 SPIN=  4.0000000000
%ENDBLOCK POSITIONS_FRAC

%BLOCK KPOINTS_LIST
   0.3333333333333333   0.3333333333333333   0.0000000000000000       0.111111111111111
   0.3333333333333333   0.0000000000000000   0.0000000000000000       0.111111111111111
   0.3333333333333333  -0.3333333333333333   0.0000000000000000       0.111111111111111
   0.0000000000000000   0.3333333333333333   0.0000000000000000       0.111111111111111
   0.0000000000000000   0.0000000000000000   0.0000000000000000       0.111111111111111
   0.0000000000000000  -0.3333333333333333   0.0000000000000000       0.111111111111111
  -0.3333333333333333   0.3333333333333333   0.0000000000000000       0.111111111111111
  -0.3333333333333333   0.0000000000000000   0.0000000000000000       0.111111111111111
  -0.3333333333333333  -0.3333333333333333   0.0000000000000000       0.111111111111111
%ENDBLOCK KPOINTS_LIST

%BLOCK CELL_CONSTRAINTS
       1       2       3
       4       5       6
%ENDBLOCK CELL_CONSTRAINTS

FIX_COM : false
%BLOCK IONIC_CONSTRAINTS
%ENDBLOCK IONIC_CONSTRAINTS

%BLOCK EXTERNAL_EFIELD
    0.0000000000     0.0000000000     0.0000000000 
%ENDBLOCK EXTERNAL_EFIELD

%BLOCK SPECIES_MASS
      Fe     55.8470001221
%ENDBLOCK SPECIES_MASS

%BLOCK SPECIES_POT
      Fe  Fe_00PBE.uspcc
%ENDBLOCK SPECIES_POT

%BLOCK SPECIES_LCAO_STATES
      Fe         3
%ENDBLOCK SPECIES_LCAO_STATES

%BLOCK HUBBARD_U
      Fe       1       d:       3.000000000000000
      Fe       2       d:       3.000000000000000
      Fe       3       d:       3.000000000000000
      Fe       4       d:       3.000000000000000
%ENDBLOCK HUBBARD_U

QUANTIZATION_AXIS :    0.0000    0.0000    1.0000