%chk=HCOH.chk
%nproc=24
#p M062X/6-31g** opt freq

Title Card Required

0 1
 C                 -0.65891469   -1.09819120    0.00000000
 H                 -1.72891469   -1.09819120    0.00000000
 O                 -0.03187426   -0.00714085    0.00000000
 H                  0.92812385   -0.00523959    0.00000000


