%chk=E:\2019fall\TCCNotes\CMS\1009\1009.chk
# wb97xd/6-31g(d,p) geom=connectivity

xxx

0 1
 C                  3.96640806   -1.65374675    0.00000000
 H                  4.32306248   -2.66255675    0.00000000
 H                  4.32308090   -1.14934856    0.87365150
 H                  4.32308090   -1.14934856   -0.87365150
 H                  2.89640806   -1.65373356    0.00000000

 1 2 1.0 3 1.0 4 1.0 5 1.0
 2
 3
 4
 5

