%chk=w1.chk
%nprocshared=24
#p m062x/def2qzvp pop=(mk,npa)

test

0 1
 O                 -0.01042600    1.25416500    0.01503400
 H                 -0.18129635    0.33934813    0.25064684
 H                 -0.84159863    1.73162295   -0.03774823

