%chk=w3c.chk
%nproc=24
# M062X/def2qzvp pop=(npa,mk)

Title Card Required

0 1
 O                  0.18132968   -0.54212223   -0.01031667
 H                  1.08262941   -0.62494004   -0.33031667
 O                 -1.31510343   -2.65952609   -0.92701666
 H                 -0.93366234   -3.48198592   -0.61132299
 H                 -0.79273123   -1.92038653   -0.60701666
 O                 -0.88513470    1.82853265   -0.91464207
 H                 -0.50620716    1.00657528   -0.59464207
 H                 -1.75612511    1.65869196   -1.28087948
 H                  0.18132968   -0.54212223    0.94968333

 1 2 1.0 9 1.0
 2
 3 4 1.0 5 1.0
 4
 5
 6 7 1.0 8 1.0
 7
 8
 9

