%chk=w1bq.chk
%nprocshared=24
#p pop=(mk,npa) def2qzvp m062x charge

test

0 1
 O                 -0.01042600    1.25416500    0.01503400
 H                 -0.18129635    0.33934813    0.25064684
 H                 -0.84159863    1.73162295   -0.03774823
Bq -1.16149088    3.06890557    0.18977247 
Bq 0.68022584   -0.62553988   -0.04259554  

